Instance name:    bar-n100-3
Authors:          PDPTW Solver
Date:             2025-11-20
Reference:        LNS with SA/RTR
Solution
Route 1 : 39 89 8 11 61 44 48 94 28 78 98 58 15 6 56 65
Route 2 : 32 4 38 88 82 3 20 21 53 14 54 70 71 7 27 77 57 64
Route 3 : 26 31 81 76 13 40 90 19 63 50 69 25 75 22 100 12 62 72 16 66
Route 4 : 36 47 1 51 10 60 97 86 34 41 2 35 52 84 17 91 85 67
Route 5 : 5 24 74 9 59 33 45 83 43 55 95 93 18 42 92 68
Route 6 : 23 73 30 80 46 37 96 49 29 87 99 79
